NAME : in_house_8_8
TYPE : TSP
DIMENSION : 8
EDGE_WEIGHT_TYPE : EXPLICIT
EDGE_WEIGHT_FORMAT : UPPER_ROW
COMMENT : INVERSION_SHIFT=3
EDGE_WEIGHT_SECTION
38
2
25
15
6
53
5
59
27
10
13
39
29
47
34
38
18
55
39
17
57
7
2
28
6
15
18
7
